c max 249  250  251  252  253  254  255  256  293  294  295  296  297  298  299  300  301  302  303  304  365  367  368  369  370  371  372  373  374  375  376  377  378  379  380  381  385  386  390  391  395  396 0
c ind 888  895  900  907  914  919  920  923  924  927  928  931  932  935  938  939  942  943  946  949  950  953  954  957  958  961  962  965  966  969  970  973  974  977  978  979  982  983  986  987  990  991  994  995  997  998  999 0
c This is a CNF SAT formula in the DIMACS CNF format,
c produced with the bc2cnf translator by Tommi Junttila;
c see http://users.ics.aalto.fi/tjunttil/circuits/index.html
c phi_Gamma_det <-> 1
c phi_Gamma <-> 1
c phi_T_feature_det <-> 1
c phi_T_transitions <-> 1
c phi_T_transitions_consistency <-> 1
c phi_T <-> 1
c phi_sim_leaves <-> 1
c phi_sim_transition <-> 1
c phi_sim <-> 1
c FORMULA <-> 1
c pi_2 <-> 2
c pi_1 <-> 135
c pi_0 <-> 175
c tau_2_3_H1_1 <-> 249
c tau_2_3_H1_0 <-> 250
c tau_2_2_H1_1 <-> 251
c tau_2_2_H1_0 <-> 252
c tau_2_1_H1_1 <-> 253
c tau_2_1_H1_0 <-> 254
c tau_2_0_H1_1 <-> 255
c tau_2_0_H1_0 <-> 256
c tau_1_3_H1_1 <-> 293
c tau_1_3_H1_0 <-> 294
c tau_1_3_2 <-> 295
c tau_1_2_H1_1 <-> 296
c tau_1_2_H1_0 <-> 297
c tau_1_2_2 <-> 298
c tau_1_1_H1_1 <-> 299
c tau_1_1_H1_0 <-> 300
c tau_1_1_2 <-> 301
c tau_1_0_H1_1 <-> 302
c tau_1_0_H1_0 <-> 303
c tau_1_0_2 <-> 304
c tau_0_3_H1_1 <-> 365
c tau_0_3_H1_0 <-> 367
c tau_0_3_2 <-> 368
c tau_0_3_1 <-> 369
c tau_0_2_H1_1 <-> 370
c tau_0_2_H1_0 <-> 371
c tau_0_2_2 <-> 372
c tau_0_2_1 <-> 373
c tau_0_1_H1_1 <-> 374
c tau_0_1_H1_0 <-> 375
c tau_0_1_2 <-> 376
c tau_0_1_1 <-> 377
c tau_0_0_H1_1 <-> 378
c tau_0_0_H1_0 <-> 379
c tau_0_0_2 <-> 380
c tau_0_0_1 <-> 381
c lam_2_F10 <-> 385
c lam_2_F1 <-> 386
c lam_1_F10 <-> 390
c lam_1_F1 <-> 391
c lam_0_F10 <-> 395
c lam_0_F1 <-> 396
c phi_Gamma_val <-> 882
c F1_P139 <-> 888
c F10_P500 <-> 895
c F1_N61 <-> 900
c F1_P186 <-> 907
c F10_P420 <-> 914
c F10_P220 <-> 919
c F1_N14 <-> 920
c F10_P200 <-> 923
c F1_P94 <-> 924
c F10_P180 <-> 927
c F1_P31 <-> 928
c F10_P229 <-> 931
c F1_P43 <-> 932
c F10_P430 <-> 935
c F10_P240 <-> 938
c F1_P79 <-> 939
c F10_P300 <-> 942
c F1_P85 <-> 943
c F1_P11 <-> 946
c F10_P290 <-> 949
c F1_P25 <-> 950
c F10_P409 <-> 953
c F1_P10 <-> 954
c F10_P150 <-> 957
c F1_P53 <-> 958
c F10_P110 <-> 961
c F1_P87 <-> 962
c F10_P120 <-> 965
c F1_P54 <-> 966
c F10_P350 <-> 969
c F1_P99 <-> 970
c F10_P330 <-> 973
c F1_P71 <-> 974
c pi_H1_0 <-> 977
c H1_P0 <-> 977
c F10_P280 <-> 978
c F1_P12 <-> 979
c F10_P260 <-> 982
c F1_P92 <-> 983
c F10_P390 <-> 986
c F1_P42 <-> 987
c F10_P190 <-> 990
c F1_P59 <-> 991
c F10_P400 <-> 994
c F1_P39 <-> 995
c pi_H1_1 <-> 997
c H1_P100 <-> 997
c F10_P320 <-> 998
c F1_P86 <-> 999
p cnf 999 2786
1 0
2 -3 0
2 -25 0
-2 25 3 0
-3 4 0
-3 83 0
3 -83 -4 0
-4 5 0
-4 385 0
4 -385 -5 0
5 -6 0
5 -51 0
-5 51 6 0
6 -7 0
6 -53 0
-6 53 7 0
7 -8 0
7 -55 0
-7 55 8 0
8 -9 0
8 -101 0
-8 101 9 0
9 -10 0
9 -103 0
-9 103 10 0
10 -11 0
10 -119 0
-10 119 11 0
11 -12 0
11 -121 0
-11 121 12 0
12 -13 0
12 -123 0
-12 123 13 0
13 -14 0
13 -57 0
-13 57 14 0
14 -15 0
14 -59 0
-14 59 15 0
15 -16 0
15 -63 0
-15 63 16 0
16 -17 0
16 -125 0
-16 125 17 0
17 -18 0
17 -127 0
-17 127 18 0
18 -19 0
18 -69 0
-18 69 19 0
19 -20 0
19 -73 0
-19 73 20 0
20 -21 0
20 -133 0
-20 133 21 0
21 -22 0
21 -77 0
-21 77 22 0
22 -23 0
22 -92 0
-22 92 23 0
23 -24 0
23 -111 0
-23 111 24 0
24 -80 0
24 -112 0
-24 112 80 0
25 -26 0
25 -37 0
-25 37 26 0
-26 27 0
-26 96 0
26 -96 -27 0
-27 28 0
-27 385 0
27 -385 -28 0
28 -29 0
28 -61 0
-28 61 29 0
29 -30 0
29 -65 0
-29 65 30 0
30 -31 0
30 -129 0
-30 129 31 0
31 -32 0
31 -67 0
-31 67 32 0
32 -33 0
32 -107 0
-32 107 33 0
33 -34 0
33 -71 0
-33 71 34 0
34 -35 0
34 -131 0
-34 131 35 0
35 -36 0
35 -109 0
-35 109 36 0
36 -79 0
36 -134 0
-36 134 79 0
37 -38 0
37 -44 0
-37 44 38 0
-38 39 0
-38 114 0
38 -114 -39 0
-39 40 0
-39 385 0
39 -385 -40 0
40 -41 0
40 -105 0
-40 105 41 0
41 -42 0
41 -88 0
-41 88 42 0
42 -43 0
42 -75 0
-42 75 43 0
43 -90 0
43 -93 0
-43 93 90 0
44 -45 0
44 -81 0
-44 81 45 0
-45 46 0
-45 49 0
45 -49 -46 0
-46 47 0
-46 48 0
46 -48 -47 0
47 249 0
47 -997 0
-47 997 -249 0
48 250 0
48 -977 0
-48 977 -250 0
-49 50 0
-49 386 0
49 -386 -50 0
50 -51 0
50 -52 0
-50 52 51 0
-51 888 0
-51 895 0
51 -895 -888 0
52 -53 0
52 -54 0
-52 54 53 0
-53 888 0
-53 994 0
53 -994 -888 0
54 -55 0
54 -56 0
-54 56 55 0
-55 888 0
-55 942 0
55 -942 -888 0
56 -57 0
56 -58 0
-56 58 57 0
-57 907 0
-57 914 0
57 -914 -907 0
58 -59 0
58 -60 0
-58 60 59 0
-59 907 0
-59 998 0
59 -998 -907 0
60 -61 0
60 -62 0
-60 62 61 0
-61 907 0
-61 919 0
61 -919 -907 0
62 -63 0
62 -64 0
-62 64 63 0
-63 914 0
-63 999 0
63 -999 -914 0
64 -65 0
64 -66 0
-64 66 65 0
-65 919 0
-65 999 0
65 -999 -919 0
66 -67 0
66 -68 0
-66 68 67 0
-67 923 0
-67 924 0
67 -924 -923 0
68 -69 0
68 -70 0
-68 70 69 0
-69 935 0
-69 962 0
69 -962 -935 0
70 -71 0
70 -72 0
-70 72 71 0
-71 938 0
-71 939 0
71 -939 -938 0
72 -73 0
72 -74 0
-72 74 73 0
-73 942 0
-73 943 0
73 -943 -942 0
74 -75 0
74 -76 0
-74 76 75 0
-75 961 0
-75 962 0
75 -962 -961 0
76 -77 0
76 -78 0
-76 78 77 0
-77 969 0
-77 970 0
77 -970 -969 0
78 -79 0
78 -80 0
-78 80 79 0
-79 982 0
-79 983 0
79 -983 -982 0
-80 998 0
-80 999 0
80 -999 -998 0
81 -82 0
81 -94 0
-81 94 82 0
-82 83 0
-82 86 0
82 -86 -83 0
-83 84 0
-83 85 0
83 -85 -84 0
84 251 0
84 -997 0
-84 997 -251 0
85 252 0
85 -977 0
-85 977 -252 0
-86 87 0
-86 386 0
86 -386 -87 0
87 -88 0
87 -89 0
-87 89 88 0
-88 957 0
-88 958 0
88 -958 -957 0
89 -90 0
89 -91 0
-89 91 90 0
-90 965 0
-90 966 0
90 -966 -965 0
91 -92 0
91 -93 0
-91 93 92 0
-92 973 0
-92 974 0
92 -974 -973 0
-93 990 0
-93 991 0
93 -991 -990 0
94 -95 0
94 -113 0
-94 113 95 0
-95 96 0
-95 99 0
95 -99 -96 0
-96 97 0
-96 98 0
96 -98 -97 0
97 253 0
97 -997 0
-97 997 -253 0
98 254 0
98 -977 0
-98 977 -254 0
-99 100 0
-99 386 0
99 -386 -100 0
100 -101 0
100 -102 0
-100 102 101 0
-101 895 0
-101 995 0
101 -995 -895 0
102 -103 0
102 -104 0
-102 104 103 0
-103 942 0
-103 995 0
103 -995 -942 0
104 -105 0
104 -106 0
-104 106 105 0
-105 927 0
-105 928 0
105 -928 -927 0
106 -107 0
106 -108 0
-106 108 107 0
-107 931 0
-107 932 0
107 -932 -931 0
108 -109 0
108 -110 0
-108 110 109 0
-109 949 0
-109 950 0
109 -950 -949 0
110 -111 0
110 -112 0
-110 112 111 0
-111 986 0
-111 987 0
111 -987 -986 0
-112 994 0
-112 995 0
112 -995 -994 0
-113 114 0
-113 117 0
113 -117 -114 0
-114 115 0
-114 116 0
114 -116 -115 0
115 255 0
115 -997 0
-115 997 -255 0
116 256 0
116 -977 0
-116 977 -256 0
-117 118 0
-117 386 0
117 -386 -118 0
118 -119 0
118 -120 0
-118 120 119 0
-119 895 0
-119 900 0
119 -900 -895 0
120 -121 0
120 -122 0
-120 122 121 0
-121 900 0
-121 994 0
121 -994 -900 0
122 -123 0
122 -124 0
-122 124 123 0
-123 900 0
-123 942 0
123 -942 -900 0
124 -125 0
124 -126 0
-124 126 125 0
-125 914 0
-125 920 0
125 -920 -914 0
126 -127 0
126 -128 0
-126 128 127 0
-127 920 0
-127 998 0
127 -998 -920 0
128 -129 0
128 -130 0
-128 130 129 0
-129 919 0
-129 920 0
129 -920 -919 0
130 -131 0
130 -132 0
-130 132 131 0
-131 946 0
-131 982 0
131 -982 -946 0
132 -133 0
132 -134 0
-132 134 133 0
-133 953 0
-133 954 0
133 -954 -953 0
-134 978 0
-134 979 0
134 -979 -978 0
135 -136 0
135 -138 0
-135 138 136 0
-136 137 0
-136 154 0
136 -154 -137 0
-137 5 0
-137 390 0
137 -390 -5 0
138 -139 0
138 -141 0
-138 141 139 0
-139 140 0
-139 162 0
139 -162 -140 0
-140 28 0
-140 390 0
140 -390 -28 0
141 -142 0
141 -144 0
-141 144 142 0
-142 143 0
-142 169 0
142 -169 -143 0
-143 40 0
-143 390 0
143 -390 -40 0
144 -145 0
144 -152 0
-144 152 145 0
-145 146 0
-145 151 0
145 -151 -146 0
-146 147 0
-146 148 0
146 -148 -147 0
147 293 0
147 -997 0
-147 997 -293 0
-148 149 0
-148 150 0
148 -150 -149 0
149 294 0
149 -977 0
-149 977 -294 0
150 -2 0
150 295 0
-150 -295 2 0
-151 50 0
-151 391 0
151 -391 -50 0
152 -153 0
152 -160 0
-152 160 153 0
-153 154 0
-153 159 0
153 -159 -154 0
-154 155 0
-154 156 0
154 -156 -155 0
155 296 0
155 -997 0
-155 997 -296 0
-156 157 0
-156 158 0
156 -158 -157 0
157 297 0
157 -977 0
-157 977 -297 0
158 -2 0
158 298 0
-158 -298 2 0
-159 87 0
-159 391 0
159 -391 -87 0
160 -161 0
160 -168 0
-160 168 161 0
-161 162 0
-161 167 0
161 -167 -162 0
-162 163 0
-162 164 0
162 -164 -163 0
163 299 0
163 -997 0
-163 997 -299 0
-164 165 0
-164 166 0
164 -166 -165 0
165 300 0
165 -977 0
-165 977 -300 0
166 -2 0
166 301 0
-166 -301 2 0
-167 100 0
-167 391 0
167 -391 -100 0
-168 169 0
-168 174 0
168 -174 -169 0
-169 170 0
-169 171 0
169 -171 -170 0
170 302 0
170 -997 0
-170 997 -302 0
-171 172 0
-171 173 0
171 -173 -172 0
172 303 0
172 -977 0
-172 977 -303 0
173 -2 0
173 304 0
-173 -304 2 0
-174 118 0
-174 391 0
174 -391 -118 0
175 -176 0
175 -178 0
-175 178 176 0
175 0
-176 177 0
-176 196 0
176 -196 -177 0
-177 5 0
-177 395 0
177 -395 -5 0
178 -179 0
178 -181 0
-178 181 179 0
-179 180 0
-179 206 0
179 -206 -180 0
-180 28 0
-180 395 0
180 -395 -28 0
181 -182 0
181 -184 0
-181 184 182 0
-182 183 0
-182 215 0
182 -215 -183 0
-183 40 0
-183 395 0
183 -395 -40 0
184 -185 0
184 -194 0
-184 194 185 0
-185 186 0
-185 193 0
185 -193 -186 0
-186 187 0
-186 188 0
186 -188 -187 0
187 365 0
187 -997 0
-187 997 -365 0
-188 189 0
-188 190 0
188 -190 -189 0
189 367 0
189 -977 0
-189 977 -367 0
-190 191 0
-190 192 0
190 -192 -191 0
191 -2 0
191 368 0
-191 -368 2 0
192 -135 0
192 369 0
-192 -369 135 0
-193 50 0
-193 396 0
193 -396 -50 0
194 -195 0
194 -204 0
-194 204 195 0
-195 196 0
-195 203 0
195 -203 -196 0
-196 197 0
-196 198 0
196 -198 -197 0
197 370 0
197 -997 0
-197 997 -370 0
-198 199 0
-198 200 0
198 -200 -199 0
199 371 0
199 -977 0
-199 977 -371 0
-200 201 0
-200 202 0
200 -202 -201 0
201 -2 0
201 372 0
-201 -372 2 0
202 -135 0
202 373 0
-202 -373 135 0
-203 87 0
-203 396 0
203 -396 -87 0
204 -205 0
204 -214 0
-204 214 205 0
-205 206 0
-205 213 0
205 -213 -206 0
-206 207 0
-206 208 0
206 -208 -207 0
207 374 0
207 -997 0
-207 997 -374 0
-208 209 0
-208 210 0
208 -210 -209 0
209 375 0
209 -977 0
-209 977 -375 0
-210 211 0
-210 212 0
210 -212 -211 0
211 -2 0
211 376 0
-211 -376 2 0
212 -135 0
212 377 0
-212 -377 135 0
-213 100 0
-213 396 0
213 -396 -100 0
-214 215 0
-214 222 0
214 -222 -215 0
-215 216 0
-215 217 0
215 -217 -216 0
216 378 0
216 -997 0
-216 997 -378 0
-217 218 0
-217 219 0
217 -219 -218 0
218 379 0
218 -977 0
-218 977 -379 0
-219 220 0
-219 221 0
219 -221 -220 0
220 -2 0
220 380 0
-220 -380 2 0
221 -135 0
221 381 0
-221 -381 135 0
-222 118 0
-222 396 0
222 -396 -118 0
223 385 0
223 -224 0
-223 224 -385 0
223 0
-224 -249 0
-224 -250 0
224 250 249 0
225 390 0
225 -226 0
-225 226 -390 0
225 0
-226 -293 0
-226 227 0
226 -227 293 0
-227 -294 0
-227 -295 0
227 295 294 0
228 395 0
228 -229 0
-228 229 -395 0
228 0
-229 -365 0
-229 230 0
229 -230 365 0
-230 -367 0
-230 231 0
230 -231 367 0
-231 -368 0
-231 -369 0
231 369 368 0
232 385 0
232 -233 0
-232 233 -385 0
232 0
-233 234 0
-233 237 0
233 -237 -234 0
234 -235 0
234 -236 0
-234 236 235 0
-235 -252 0
-235 251 0
235 -251 252 0
-236 -251 0
-236 252 0
236 -252 251 0
-237 238 0
-237 241 0
237 -241 -238 0
238 -239 0
238 -240 0
-238 240 239 0
-239 -254 0
-239 253 0
239 -253 254 0
-240 -253 0
-240 254 0
240 -254 253 0
241 -242 0
241 -243 0
-241 243 242 0
-242 -256 0
-242 255 0
242 -255 256 0
-243 -255 0
-243 256 0
243 -256 255 0
244 386 0
244 -245 0
-244 245 -386 0
244 0
-245 233 0
-245 246 0
245 -246 -233 0
246 -247 0
246 -248 0
-246 248 247 0
-247 -250 0
-247 249 0
247 -249 250 0
-248 -249 0
-248 250 0
248 -250 249 0
257 390 0
257 -258 0
-257 258 -390 0
257 0
-258 259 0
-258 267 0
258 -267 -259 0
259 -260 0
259 -265 0
-259 265 260 0
260 -261 0
260 -263 0
-260 263 261 0
-261 262 0
-261 296 0
261 -296 -262 0
-262 -297 0
-262 -298 0
262 298 297 0
-263 264 0
-263 297 0
263 -297 -264 0
-264 -296 0
-264 -298 0
264 298 296 0
-265 266 0
-265 298 0
265 -298 -266 0
-266 -296 0
-266 -297 0
266 297 296 0
-267 268 0
-267 276 0
267 -276 -268 0
268 -269 0
268 -274 0
-268 274 269 0
269 -270 0
269 -272 0
-269 272 270 0
-270 271 0
-270 299 0
270 -299 -271 0
-271 -300 0
-271 -301 0
271 301 300 0
-272 273 0
-272 300 0
272 -300 -273 0
-273 -299 0
-273 -301 0
273 301 299 0
-274 275 0
-274 301 0
274 -301 -275 0
-275 -299 0
-275 -300 0
275 300 299 0
276 -277 0
276 -282 0
-276 282 277 0
277 -278 0
277 -280 0
-277 280 278 0
-278 279 0
-278 302 0
278 -302 -279 0
-279 -303 0
-279 -304 0
279 304 303 0
-280 281 0
-280 303 0
280 -303 -281 0
-281 -302 0
-281 -304 0
281 304 302 0
-282 283 0
-282 304 0
282 -304 -283 0
-283 -302 0
-283 -303 0
283 303 302 0
284 391 0
284 -285 0
-284 285 -391 0
284 0
-285 258 0
-285 286 0
285 -286 -258 0
286 -287 0
286 -291 0
-286 291 287 0
287 -288 0
287 -289 0
-287 289 288 0
-288 227 0
-288 293 0
288 -293 -227 0
-289 290 0
-289 294 0
289 -294 -290 0
-290 -293 0
-290 -295 0
290 295 293 0
-291 292 0
-291 295 0
291 -295 -292 0
-292 -293 0
-292 -294 0
292 294 293 0
305 395 0
305 -306 0
-305 306 -395 0
305 0
-306 307 0
-306 321 0
306 -321 -307 0
307 -308 0
307 -314 0
-307 314 308 0
308 -309 0
308 -311 0
-308 311 309 0
-309 310 0
-309 370 0
309 -370 -310 0
-310 -372 0
-310 317 0
310 -317 372 0
-311 312 0
-311 371 0
311 -371 -312 0
-312 -372 0
-312 313 0
312 -313 372 0
-313 -370 0
-313 -373 0
313 373 370 0
314 -315 0
314 -318 0
-314 318 315 0
-315 316 0
-315 372 0
315 -372 -316 0
-316 -370 0
-316 317 0
316 -317 370 0
-317 -371 0
-317 -373 0
317 373 371 0
-318 319 0
-318 373 0
318 -373 -319 0
-319 -370 0
-319 320 0
319 -320 370 0
-320 -371 0
-320 -372 0
320 372 371 0
-321 322 0
-321 336 0
321 -336 -322 0
322 -323 0
322 -329 0
-322 329 323 0
323 -324 0
323 -326 0
-323 326 324 0
-324 325 0
-324 374 0
324 -374 -325 0
-325 -376 0
-325 332 0
325 -332 376 0
-326 327 0
-326 375 0
326 -375 -327 0
-327 -376 0
-327 328 0
327 -328 376 0
-328 -374 0
-328 -377 0
328 377 374 0
329 -330 0
329 -333 0
-329 333 330 0
-330 331 0
-330 376 0
330 -376 -331 0
-331 -374 0
-331 332 0
331 -332 374 0
-332 -375 0
-332 -377 0
332 377 375 0
-333 334 0
-333 377 0
333 -377 -334 0
-334 -374 0
-334 335 0
334 -335 374 0
-335 -375 0
-335 -376 0
335 376 375 0
336 -337 0
336 -343 0
-336 343 337 0
337 -338 0
337 -340 0
-337 340 338 0
-338 339 0
-338 378 0
338 -378 -339 0
-339 -380 0
-339 346 0
339 -346 380 0
-340 341 0
-340 379 0
340 -379 -341 0
-341 -380 0
-341 342 0
341 -342 380 0
-342 -378 0
-342 -381 0
342 381 378 0
343 -344 0
343 -347 0
-343 347 344 0
-344 345 0
-344 380 0
344 -380 -345 0
-345 -378 0
-345 346 0
345 -346 378 0
-346 -379 0
-346 -381 0
346 381 379 0
-347 348 0
-347 381 0
347 -381 -348 0
-348 -378 0
-348 349 0
348 -349 378 0
-349 -379 0
-349 -380 0
349 380 379 0
350 396 0
350 -351 0
-350 351 -396 0
350 0
-351 306 0
-351 352 0
351 -352 -306 0
352 -353 0
352 -359 0
-352 359 353 0
353 -354 0
353 -356 0
-353 356 354 0
-354 355 0
-354 365 0
354 -365 -355 0
-355 -368 0
-355 362 0
355 -362 368 0
-356 357 0
-356 367 0
356 -367 -357 0
-357 -368 0
-357 358 0
357 -358 368 0
-358 -365 0
-358 -369 0
358 369 365 0
359 -360 0
359 -363 0
-359 363 360 0
-360 361 0
-360 368 0
360 -368 -361 0
-361 -365 0
-361 362 0
361 -362 365 0
-362 -367 0
-362 -369 0
362 369 367 0
-363 364 0
-363 369 0
363 -369 -364 0
-364 -365 0
-364 366 0
364 -366 365 0
-366 -367 0
-366 -368 0
366 368 367 0
382 -383 0
382 -384 0
-382 384 383 0
382 0
-383 -386 0
-383 385 0
383 -385 386 0
-384 -385 0
-384 386 0
384 -386 385 0
387 -388 0
387 -389 0
-387 389 388 0
387 0
-388 -391 0
-388 390 0
388 -390 391 0
-389 -390 0
-389 391 0
389 -391 390 0
392 -393 0
392 -394 0
-392 394 393 0
392 0
-393 -396 0
-393 395 0
393 -395 396 0
-394 -395 0
-394 396 0
394 -396 395 0
397 997 0
397 977 0
-397 -977 -997 0
397 0
398 914 0
398 895 0
-398 -895 -914 0
398 0
399 919 0
399 -400 0
-399 400 -919 0
399 0
-400 -914 0
-400 -895 0
400 895 914 0
401 923 0
401 -402 0
-401 402 -923 0
401 0
-402 -895 0
-402 403 0
402 -403 895 0
-403 -914 0
-403 -919 0
403 919 914 0
404 927 0
404 -405 0
-404 405 -927 0
404 0
-405 -895 0
-405 406 0
405 -406 895 0
-406 -914 0
-406 407 0
406 -407 914 0
-407 -919 0
-407 -923 0
407 923 919 0
408 931 0
408 -409 0
-408 409 -931 0
408 0
-409 -895 0
-409 410 0
409 -410 895 0
-410 -914 0
-410 411 0
410 -411 914 0
-411 -919 0
-411 412 0
411 -412 919 0
-412 -923 0
-412 -927 0
412 927 923 0
413 935 0
413 -414 0
-413 414 -935 0
413 0
-414 -895 0
-414 415 0
414 -415 895 0
-415 -914 0
-415 416 0
415 -416 914 0
-416 -919 0
-416 417 0
416 -417 919 0
-417 -923 0
-417 418 0
417 -418 923 0
-418 -927 0
-418 -931 0
418 931 927 0
419 938 0
419 -420 0
-419 420 -938 0
419 0
-420 -895 0
-420 421 0
420 -421 895 0
-421 -914 0
-421 422 0
421 -422 914 0
-422 -919 0
-422 423 0
422 -423 919 0
-423 -923 0
-423 424 0
423 -424 923 0
-424 -927 0
-424 425 0
424 -425 927 0
-425 -931 0
-425 -935 0
425 935 931 0
426 942 0
426 -427 0
-426 427 -942 0
426 0
-427 -895 0
-427 428 0
427 -428 895 0
-428 -914 0
-428 429 0
428 -429 914 0
-429 -919 0
-429 430 0
429 -430 919 0
-430 -923 0
-430 431 0
430 -431 923 0
-431 -927 0
-431 432 0
431 -432 927 0
-432 -931 0
-432 433 0
432 -433 931 0
-433 -935 0
-433 -938 0
433 938 935 0
434 949 0
434 -435 0
-434 435 -949 0
434 0
-435 -895 0
-435 436 0
435 -436 895 0
-436 -914 0
-436 437 0
436 -437 914 0
-437 -919 0
-437 438 0
437 -438 919 0
-438 -923 0
-438 439 0
438 -439 923 0
-439 -927 0
-439 440 0
439 -440 927 0
-440 -931 0
-440 441 0
440 -441 931 0
-441 -935 0
-441 442 0
441 -442 935 0
-442 -938 0
-442 -942 0
442 942 938 0
443 953 0
443 -444 0
-443 444 -953 0
443 0
-444 -895 0
-444 445 0
444 -445 895 0
-445 -914 0
-445 446 0
445 -446 914 0
-446 -919 0
-446 447 0
446 -447 919 0
-447 -923 0
-447 448 0
447 -448 923 0
-448 -927 0
-448 449 0
448 -449 927 0
-449 -931 0
-449 450 0
449 -450 931 0
-450 -935 0
-450 451 0
450 -451 935 0
-451 -938 0
-451 452 0
451 -452 938 0
-452 -942 0
-452 -949 0
452 949 942 0
453 957 0
453 -454 0
-453 454 -957 0
453 0
-454 -895 0
-454 455 0
454 -455 895 0
-455 -914 0
-455 456 0
455 -456 914 0
-456 -919 0
-456 457 0
456 -457 919 0
-457 -923 0
-457 458 0
457 -458 923 0
-458 -927 0
-458 459 0
458 -459 927 0
-459 -931 0
-459 460 0
459 -460 931 0
-460 -935 0
-460 461 0
460 -461 935 0
-461 -938 0
-461 462 0
461 -462 938 0
-462 -942 0
-462 463 0
462 -463 942 0
-463 -949 0
-463 -953 0
463 953 949 0
464 961 0
464 -465 0
-464 465 -961 0
464 0
-465 -895 0
-465 466 0
465 -466 895 0
-466 -914 0
-466 467 0
466 -467 914 0
-467 -919 0
-467 468 0
467 -468 919 0
-468 -923 0
-468 469 0
468 -469 923 0
-469 -927 0
-469 470 0
469 -470 927 0
-470 -931 0
-470 471 0
470 -471 931 0
-471 -935 0
-471 472 0
471 -472 935 0
-472 -938 0
-472 473 0
472 -473 938 0
-473 -942 0
-473 474 0
473 -474 942 0
-474 -949 0
-474 475 0
474 -475 949 0
-475 -953 0
-475 -957 0
475 957 953 0
476 965 0
476 -477 0
-476 477 -965 0
476 0
-477 -895 0
-477 478 0
477 -478 895 0
-478 -914 0
-478 479 0
478 -479 914 0
-479 -919 0
-479 480 0
479 -480 919 0
-480 -923 0
-480 481 0
480 -481 923 0
-481 -927 0
-481 482 0
481 -482 927 0
-482 -931 0
-482 483 0
482 -483 931 0
-483 -935 0
-483 484 0
483 -484 935 0
-484 -938 0
-484 485 0
484 -485 938 0
-485 -942 0
-485 486 0
485 -486 942 0
-486 -949 0
-486 487 0
486 -487 949 0
-487 -953 0
-487 488 0
487 -488 953 0
-488 -957 0
-488 -961 0
488 961 957 0
489 969 0
489 -490 0
-489 490 -969 0
489 0
-490 -895 0
-490 491 0
490 -491 895 0
-491 -914 0
-491 492 0
491 -492 914 0
-492 -919 0
-492 493 0
492 -493 919 0
-493 -923 0
-493 494 0
493 -494 923 0
-494 -927 0
-494 495 0
494 -495 927 0
-495 -931 0
-495 496 0
495 -496 931 0
-496 -935 0
-496 497 0
496 -497 935 0
-497 -938 0
-497 498 0
497 -498 938 0
-498 -942 0
-498 499 0
498 -499 942 0
-499 -949 0
-499 500 0
499 -500 949 0
-500 -953 0
-500 501 0
500 -501 953 0
-501 -957 0
-501 502 0
501 -502 957 0
-502 -961 0
-502 -965 0
502 965 961 0
503 973 0
503 -504 0
-503 504 -973 0
503 0
-504 -895 0
-504 505 0
504 -505 895 0
-505 -914 0
-505 506 0
505 -506 914 0
-506 -919 0
-506 507 0
506 -507 919 0
-507 -923 0
-507 508 0
507 -508 923 0
-508 -927 0
-508 509 0
508 -509 927 0
-509 -931 0
-509 510 0
509 -510 931 0
-510 -935 0
-510 511 0
510 -511 935 0
-511 -938 0
-511 512 0
511 -512 938 0
-512 -942 0
-512 513 0
512 -513 942 0
-513 -949 0
-513 514 0
513 -514 949 0
-514 -953 0
-514 515 0
514 -515 953 0
-515 -957 0
-515 516 0
515 -516 957 0
-516 -961 0
-516 517 0
516 -517 961 0
-517 -965 0
-517 -969 0
517 969 965 0
518 978 0
518 -519 0
-518 519 -978 0
518 0
-519 -895 0
-519 520 0
519 -520 895 0
-520 -914 0
-520 521 0
520 -521 914 0
-521 -919 0
-521 522 0
521 -522 919 0
-522 -923 0
-522 523 0
522 -523 923 0
-523 -927 0
-523 524 0
523 -524 927 0
-524 -931 0
-524 525 0
524 -525 931 0
-525 -935 0
-525 526 0
525 -526 935 0
-526 -938 0
-526 527 0
526 -527 938 0
-527 -942 0
-527 528 0
527 -528 942 0
-528 -949 0
-528 529 0
528 -529 949 0
-529 -953 0
-529 530 0
529 -530 953 0
-530 -957 0
-530 531 0
530 -531 957 0
-531 -961 0
-531 532 0
531 -532 961 0
-532 -965 0
-532 533 0
532 -533 965 0
-533 -969 0
-533 -973 0
533 973 969 0
534 982 0
534 -535 0
-534 535 -982 0
534 0
-535 -895 0
-535 536 0
535 -536 895 0
-536 -914 0
-536 537 0
536 -537 914 0
-537 -919 0
-537 538 0
537 -538 919 0
-538 -923 0
-538 539 0
538 -539 923 0
-539 -927 0
-539 540 0
539 -540 927 0
-540 -931 0
-540 541 0
540 -541 931 0
-541 -935 0
-541 542 0
541 -542 935 0
-542 -938 0
-542 543 0
542 -543 938 0
-543 -942 0
-543 544 0
543 -544 942 0
-544 -949 0
-544 545 0
544 -545 949 0
-545 -953 0
-545 546 0
545 -546 953 0
-546 -957 0
-546 547 0
546 -547 957 0
-547 -961 0
-547 548 0
547 -548 961 0
-548 -965 0
-548 549 0
548 -549 965 0
-549 -969 0
-549 550 0
549 -550 969 0
-550 -973 0
-550 -978 0
550 978 973 0
551 986 0
551 -552 0
-551 552 -986 0
551 0
-552 -895 0
-552 553 0
552 -553 895 0
-553 -914 0
-553 554 0
553 -554 914 0
-554 -919 0
-554 555 0
554 -555 919 0
-555 -923 0
-555 556 0
555 -556 923 0
-556 -927 0
-556 557 0
556 -557 927 0
-557 -931 0
-557 558 0
557 -558 931 0
-558 -935 0
-558 559 0
558 -559 935 0
-559 -938 0
-559 560 0
559 -560 938 0
-560 -942 0
-560 561 0
560 -561 942 0
-561 -949 0
-561 562 0
561 -562 949 0
-562 -953 0
-562 563 0
562 -563 953 0
-563 -957 0
-563 564 0
563 -564 957 0
-564 -961 0
-564 565 0
564 -565 961 0
-565 -965 0
-565 566 0
565 -566 965 0
-566 -969 0
-566 567 0
566 -567 969 0
-567 -973 0
-567 568 0
567 -568 973 0
-568 -978 0
-568 -982 0
568 982 978 0
569 990 0
569 -570 0
-569 570 -990 0
569 0
-570 -895 0
-570 571 0
570 -571 895 0
-571 -914 0
-571 572 0
571 -572 914 0
-572 -919 0
-572 573 0
572 -573 919 0
-573 -923 0
-573 574 0
573 -574 923 0
-574 -927 0
-574 575 0
574 -575 927 0
-575 -931 0
-575 576 0
575 -576 931 0
-576 -935 0
-576 577 0
576 -577 935 0
-577 -938 0
-577 578 0
577 -578 938 0
-578 -942 0
-578 579 0
578 -579 942 0
-579 -949 0
-579 580 0
579 -580 949 0
-580 -953 0
-580 581 0
580 -581 953 0
-581 -957 0
-581 582 0
581 -582 957 0
-582 -961 0
-582 583 0
582 -583 961 0
-583 -965 0
-583 584 0
583 -584 965 0
-584 -969 0
-584 585 0
584 -585 969 0
-585 -973 0
-585 586 0
585 -586 973 0
-586 -978 0
-586 587 0
586 -587 978 0
-587 -982 0
-587 -986 0
587 986 982 0
588 994 0
588 -589 0
-588 589 -994 0
588 0
-589 -895 0
-589 590 0
589 -590 895 0
-590 -914 0
-590 591 0
590 -591 914 0
-591 -919 0
-591 592 0
591 -592 919 0
-592 -923 0
-592 593 0
592 -593 923 0
-593 -927 0
-593 594 0
593 -594 927 0
-594 -931 0
-594 595 0
594 -595 931 0
-595 -935 0
-595 596 0
595 -596 935 0
-596 -938 0
-596 597 0
596 -597 938 0
-597 -942 0
-597 598 0
597 -598 942 0
-598 -949 0
-598 599 0
598 -599 949 0
-599 -953 0
-599 600 0
599 -600 953 0
-600 -957 0
-600 601 0
600 -601 957 0
-601 -961 0
-601 602 0
601 -602 961 0
-602 -965 0
-602 603 0
602 -603 965 0
-603 -969 0
-603 604 0
603 -604 969 0
-604 -973 0
-604 605 0
604 -605 973 0
-605 -978 0
-605 606 0
605 -606 978 0
-606 -982 0
-606 607 0
606 -607 982 0
-607 -986 0
-607 -990 0
607 990 986 0
608 998 0
608 -609 0
-608 609 -998 0
608 0
-609 -895 0
-609 610 0
609 -610 895 0
-610 -914 0
-610 611 0
610 -611 914 0
-611 -919 0
-611 612 0
611 -612 919 0
-612 -923 0
-612 613 0
612 -613 923 0
-613 -927 0
-613 614 0
613 -614 927 0
-614 -931 0
-614 615 0
614 -615 931 0
-615 -935 0
-615 616 0
615 -616 935 0
-616 -938 0
-616 617 0
616 -617 938 0
-617 -942 0
-617 618 0
617 -618 942 0
-618 -949 0
-618 619 0
618 -619 949 0
-619 -953 0
-619 620 0
619 -620 953 0
-620 -957 0
-620 621 0
620 -621 957 0
-621 -961 0
-621 622 0
621 -622 961 0
-622 -965 0
-622 623 0
622 -623 965 0
-623 -969 0
-623 624 0
623 -624 969 0
-624 -973 0
-624 625 0
624 -625 973 0
-625 -978 0
-625 626 0
625 -626 978 0
-626 -982 0
-626 627 0
626 -627 982 0
-627 -986 0
-627 628 0
627 -628 986 0
-628 -990 0
-628 -994 0
628 994 990 0
629 900 0
629 888 0
-629 -888 -900 0
629 0
630 907 0
630 -631 0
-630 631 -907 0
630 0
-631 -900 0
-631 -888 0
631 888 900 0
632 920 0
632 -633 0
-632 633 -920 0
632 0
-633 -888 0
-633 634 0
633 -634 888 0
-634 -900 0
-634 -907 0
634 907 900 0
635 924 0
635 -636 0
-635 636 -924 0
635 0
-636 -888 0
-636 637 0
636 -637 888 0
-637 -900 0
-637 638 0
637 -638 900 0
-638 -907 0
-638 -920 0
638 920 907 0
639 928 0
639 -640 0
-639 640 -928 0
639 0
-640 -888 0
-640 641 0
640 -641 888 0
-641 -900 0
-641 642 0
641 -642 900 0
-642 -907 0
-642 643 0
642 -643 907 0
-643 -920 0
-643 -924 0
643 924 920 0
644 932 0
644 -645 0
-644 645 -932 0
644 0
-645 -888 0
-645 646 0
645 -646 888 0
-646 -900 0
-646 647 0
646 -647 900 0
-647 -907 0
-647 648 0
647 -648 907 0
-648 -920 0
-648 649 0
648 -649 920 0
-649 -924 0
-649 -928 0
649 928 924 0
650 939 0
650 -651 0
-650 651 -939 0
650 0
-651 -888 0
-651 652 0
651 -652 888 0
-652 -900 0
-652 653 0
652 -653 900 0
-653 -907 0
-653 654 0
653 -654 907 0
-654 -920 0
-654 655 0
654 -655 920 0
-655 -924 0
-655 656 0
655 -656 924 0
-656 -928 0
-656 -932 0
656 932 928 0
657 943 0
657 -658 0
-657 658 -943 0
657 0
-658 -888 0
-658 659 0
658 -659 888 0
-659 -900 0
-659 660 0
659 -660 900 0
-660 -907 0
-660 661 0
660 -661 907 0
-661 -920 0
-661 662 0
661 -662 920 0
-662 -924 0
-662 663 0
662 -663 924 0
-663 -928 0
-663 664 0
663 -664 928 0
-664 -932 0
-664 -939 0
664 939 932 0
665 946 0
665 -666 0
-665 666 -946 0
665 0
-666 -888 0
-666 667 0
666 -667 888 0
-667 -900 0
-667 668 0
667 -668 900 0
-668 -907 0
-668 669 0
668 -669 907 0
-669 -920 0
-669 670 0
669 -670 920 0
-670 -924 0
-670 671 0
670 -671 924 0
-671 -928 0
-671 672 0
671 -672 928 0
-672 -932 0
-672 673 0
672 -673 932 0
-673 -939 0
-673 -943 0
673 943 939 0
674 950 0
674 -675 0
-674 675 -950 0
674 0
-675 -888 0
-675 676 0
675 -676 888 0
-676 -900 0
-676 677 0
676 -677 900 0
-677 -907 0
-677 678 0
677 -678 907 0
-678 -920 0
-678 679 0
678 -679 920 0
-679 -924 0
-679 680 0
679 -680 924 0
-680 -928 0
-680 681 0
680 -681 928 0
-681 -932 0
-681 682 0
681 -682 932 0
-682 -939 0
-682 683 0
682 -683 939 0
-683 -943 0
-683 -946 0
683 946 943 0
684 954 0
684 -685 0
-684 685 -954 0
684 0
-685 -888 0
-685 686 0
685 -686 888 0
-686 -900 0
-686 687 0
686 -687 900 0
-687 -907 0
-687 688 0
687 -688 907 0
-688 -920 0
-688 689 0
688 -689 920 0
-689 -924 0
-689 690 0
689 -690 924 0
-690 -928 0
-690 691 0
690 -691 928 0
-691 -932 0
-691 692 0
691 -692 932 0
-692 -939 0
-692 693 0
692 -693 939 0
-693 -943 0
-693 694 0
693 -694 943 0
-694 -946 0
-694 -950 0
694 950 946 0
695 958 0
695 -696 0
-695 696 -958 0
695 0
-696 -888 0
-696 697 0
696 -697 888 0
-697 -900 0
-697 698 0
697 -698 900 0
-698 -907 0
-698 699 0
698 -699 907 0
-699 -920 0
-699 700 0
699 -700 920 0
-700 -924 0
-700 701 0
700 -701 924 0
-701 -928 0
-701 702 0
701 -702 928 0
-702 -932 0
-702 703 0
702 -703 932 0
-703 -939 0
-703 704 0
703 -704 939 0
-704 -943 0
-704 705 0
704 -705 943 0
-705 -946 0
-705 706 0
705 -706 946 0
-706 -950 0
-706 -954 0
706 954 950 0
707 962 0
707 -708 0
-707 708 -962 0
707 0
-708 -888 0
-708 709 0
708 -709 888 0
-709 -900 0
-709 710 0
709 -710 900 0
-710 -907 0
-710 711 0
710 -711 907 0
-711 -920 0
-711 712 0
711 -712 920 0
-712 -924 0
-712 713 0
712 -713 924 0
-713 -928 0
-713 714 0
713 -714 928 0
-714 -932 0
-714 715 0
714 -715 932 0
-715 -939 0
-715 716 0
715 -716 939 0
-716 -943 0
-716 717 0
716 -717 943 0
-717 -946 0
-717 718 0
717 -718 946 0
-718 -950 0
-718 719 0
718 -719 950 0
-719 -954 0
-719 -958 0
719 958 954 0
720 966 0
720 -721 0
-720 721 -966 0
720 0
-721 -888 0
-721 722 0
721 -722 888 0
-722 -900 0
-722 723 0
722 -723 900 0
-723 -907 0
-723 724 0
723 -724 907 0
-724 -920 0
-724 725 0
724 -725 920 0
-725 -924 0
-725 726 0
725 -726 924 0
-726 -928 0
-726 727 0
726 -727 928 0
-727 -932 0
-727 728 0
727 -728 932 0
-728 -939 0
-728 729 0
728 -729 939 0
-729 -943 0
-729 730 0
729 -730 943 0
-730 -946 0
-730 731 0
730 -731 946 0
-731 -950 0
-731 732 0
731 -732 950 0
-732 -954 0
-732 733 0
732 -733 954 0
-733 -958 0
-733 -962 0
733 962 958 0
734 970 0
734 -735 0
-734 735 -970 0
734 0
-735 -888 0
-735 736 0
735 -736 888 0
-736 -900 0
-736 737 0
736 -737 900 0
-737 -907 0
-737 738 0
737 -738 907 0
-738 -920 0
-738 739 0
738 -739 920 0
-739 -924 0
-739 740 0
739 -740 924 0
-740 -928 0
-740 741 0
740 -741 928 0
-741 -932 0
-741 742 0
741 -742 932 0
-742 -939 0
-742 743 0
742 -743 939 0
-743 -943 0
-743 744 0
743 -744 943 0
-744 -946 0
-744 745 0
744 -745 946 0
-745 -950 0
-745 746 0
745 -746 950 0
-746 -954 0
-746 747 0
746 -747 954 0
-747 -958 0
-747 748 0
747 -748 958 0
-748 -962 0
-748 -966 0
748 966 962 0
749 974 0
749 -750 0
-749 750 -974 0
749 0
-750 -888 0
-750 751 0
750 -751 888 0
-751 -900 0
-751 752 0
751 -752 900 0
-752 -907 0
-752 753 0
752 -753 907 0
-753 -920 0
-753 754 0
753 -754 920 0
-754 -924 0
-754 755 0
754 -755 924 0
-755 -928 0
-755 756 0
755 -756 928 0
-756 -932 0
-756 757 0
756 -757 932 0
-757 -939 0
-757 758 0
757 -758 939 0
-758 -943 0
-758 759 0
758 -759 943 0
-759 -946 0
-759 760 0
759 -760 946 0
-760 -950 0
-760 761 0
760 -761 950 0
-761 -954 0
-761 762 0
761 -762 954 0
-762 -958 0
-762 763 0
762 -763 958 0
-763 -962 0
-763 764 0
763 -764 962 0
-764 -966 0
-764 -970 0
764 970 966 0
765 979 0
765 -766 0
-765 766 -979 0
765 0
-766 -888 0
-766 767 0
766 -767 888 0
-767 -900 0
-767 768 0
767 -768 900 0
-768 -907 0
-768 769 0
768 -769 907 0
-769 -920 0
-769 770 0
769 -770 920 0
-770 -924 0
-770 771 0
770 -771 924 0
-771 -928 0
-771 772 0
771 -772 928 0
-772 -932 0
-772 773 0
772 -773 932 0
-773 -939 0
-773 774 0
773 -774 939 0
-774 -943 0
-774 775 0
774 -775 943 0
-775 -946 0
-775 776 0
775 -776 946 0
-776 -950 0
-776 777 0
776 -777 950 0
-777 -954 0
-777 778 0
777 -778 954 0
-778 -958 0
-778 779 0
778 -779 958 0
-779 -962 0
-779 780 0
779 -780 962 0
-780 -966 0
-780 781 0
780 -781 966 0
-781 -970 0
-781 -974 0
781 974 970 0
782 983 0
782 -783 0
-782 783 -983 0
782 0
-783 -888 0
-783 784 0
783 -784 888 0
-784 -900 0
-784 785 0
784 -785 900 0
-785 -907 0
-785 786 0
785 -786 907 0
-786 -920 0
-786 787 0
786 -787 920 0
-787 -924 0
-787 788 0
787 -788 924 0
-788 -928 0
-788 789 0
788 -789 928 0
-789 -932 0
-789 790 0
789 -790 932 0
-790 -939 0
-790 791 0
790 -791 939 0
-791 -943 0
-791 792 0
791 -792 943 0
-792 -946 0
-792 793 0
792 -793 946 0
-793 -950 0
-793 794 0
793 -794 950 0
-794 -954 0
-794 795 0
794 -795 954 0
-795 -958 0
-795 796 0
795 -796 958 0
-796 -962 0
-796 797 0
796 -797 962 0
-797 -966 0
-797 798 0
797 -798 966 0
-798 -970 0
-798 799 0
798 -799 970 0
-799 -974 0
-799 -979 0
799 979 974 0
800 987 0
800 -801 0
-800 801 -987 0
800 0
-801 -888 0
-801 802 0
801 -802 888 0
-802 -900 0
-802 803 0
802 -803 900 0
-803 -907 0
-803 804 0
803 -804 907 0
-804 -920 0
-804 805 0
804 -805 920 0
-805 -924 0
-805 806 0
805 -806 924 0
-806 -928 0
-806 807 0
806 -807 928 0
-807 -932 0
-807 808 0
807 -808 932 0
-808 -939 0
-808 809 0
808 -809 939 0
-809 -943 0
-809 810 0
809 -810 943 0
-810 -946 0
-810 811 0
810 -811 946 0
-811 -950 0
-811 812 0
811 -812 950 0
-812 -954 0
-812 813 0
812 -813 954 0
-813 -958 0
-813 814 0
813 -814 958 0
-814 -962 0
-814 815 0
814 -815 962 0
-815 -966 0
-815 816 0
815 -816 966 0
-816 -970 0
-816 817 0
816 -817 970 0
-817 -974 0
-817 818 0
817 -818 974 0
-818 -979 0
-818 -983 0
818 983 979 0
819 991 0
819 -820 0
-819 820 -991 0
819 0
-820 -888 0
-820 821 0
820 -821 888 0
-821 -900 0
-821 822 0
821 -822 900 0
-822 -907 0
-822 823 0
822 -823 907 0
-823 -920 0
-823 824 0
823 -824 920 0
-824 -924 0
-824 825 0
824 -825 924 0
-825 -928 0
-825 826 0
825 -826 928 0
-826 -932 0
-826 827 0
826 -827 932 0
-827 -939 0
-827 828 0
827 -828 939 0
-828 -943 0
-828 829 0
828 -829 943 0
-829 -946 0
-829 830 0
829 -830 946 0
-830 -950 0
-830 831 0
830 -831 950 0
-831 -954 0
-831 832 0
831 -832 954 0
-832 -958 0
-832 833 0
832 -833 958 0
-833 -962 0
-833 834 0
833 -834 962 0
-834 -966 0
-834 835 0
834 -835 966 0
-835 -970 0
-835 836 0
835 -836 970 0
-836 -974 0
-836 837 0
836 -837 974 0
-837 -979 0
-837 838 0
837 -838 979 0
-838 -983 0
-838 -987 0
838 987 983 0
839 995 0
839 -840 0
-839 840 -995 0
839 0
-840 -888 0
-840 841 0
840 -841 888 0
-841 -900 0
-841 842 0
841 -842 900 0
-842 -907 0
-842 843 0
842 -843 907 0
-843 -920 0
-843 844 0
843 -844 920 0
-844 -924 0
-844 845 0
844 -845 924 0
-845 -928 0
-845 846 0
845 -846 928 0
-846 -932 0
-846 847 0
846 -847 932 0
-847 -939 0
-847 848 0
847 -848 939 0
-848 -943 0
-848 849 0
848 -849 943 0
-849 -946 0
-849 850 0
849 -850 946 0
-850 -950 0
-850 851 0
850 -851 950 0
-851 -954 0
-851 852 0
851 -852 954 0
-852 -958 0
-852 853 0
852 -853 958 0
-853 -962 0
-853 854 0
853 -854 962 0
-854 -966 0
-854 855 0
854 -855 966 0
-855 -970 0
-855 856 0
855 -856 970 0
-856 -974 0
-856 857 0
856 -857 974 0
-857 -979 0
-857 858 0
857 -858 979 0
-858 -983 0
-858 859 0
858 -859 983 0
-859 -987 0
-859 -991 0
859 991 987 0
860 999 0
860 -861 0
-860 861 -999 0
860 0
-861 -888 0
-861 862 0
861 -862 888 0
-862 -900 0
-862 863 0
862 -863 900 0
-863 -907 0
-863 864 0
863 -864 907 0
-864 -920 0
-864 865 0
864 -865 920 0
-865 -924 0
-865 866 0
865 -866 924 0
-866 -928 0
-866 867 0
866 -867 928 0
-867 -932 0
-867 868 0
867 -868 932 0
-868 -939 0
-868 869 0
868 -869 939 0
-869 -943 0
-869 870 0
869 -870 943 0
-870 -946 0
-870 871 0
870 -871 946 0
-871 -950 0
-871 872 0
871 -872 950 0
-872 -954 0
-872 873 0
872 -873 954 0
-873 -958 0
-873 874 0
873 -874 958 0
-874 -962 0
-874 875 0
874 -875 962 0
-875 -966 0
-875 876 0
875 -876 966 0
-876 -970 0
-876 877 0
876 -877 970 0
-877 -974 0
-877 878 0
877 -878 974 0
-878 -979 0
-878 879 0
878 -879 979 0
-879 -983 0
-879 880 0
879 -880 983 0
-880 -987 0
-880 881 0
880 -881 987 0
-881 -991 0
-881 -995 0
881 995 991 0
882 -883 0
882 -884 0
-882 884 883 0
882 0
-883 51 0
-883 997 0
883 -997 -51 0
884 -885 0
884 -886 0
-884 886 885 0
-885 53 0
-885 997 0
885 -997 -53 0
886 -887 0
886 -889 0
-886 889 887 0
-887 55 0
-887 997 0
887 -997 -55 0
889 -890 0
889 -891 0
-889 891 890 0
-890 101 0
-890 997 0
890 -997 -101 0
891 -892 0
891 -893 0
-891 893 892 0
-892 103 0
-892 997 0
892 -997 -103 0
893 -894 0
893 -896 0
-893 896 894 0
-894 119 0
-894 977 0
894 -977 -119 0
896 -897 0
896 -898 0
-896 898 897 0
-897 121 0
-897 977 0
897 -977 -121 0
898 -899 0
898 -901 0
-898 901 899 0
-899 123 0
-899 977 0
899 -977 -123 0
901 -902 0
901 -903 0
-901 903 902 0
-902 57 0
-902 997 0
902 -997 -57 0
903 -904 0
903 -905 0
-903 905 904 0
-904 59 0
-904 997 0
904 -997 -59 0
905 -906 0
905 -908 0
-905 908 906 0
-906 61 0
-906 977 0
906 -977 -61 0
908 -909 0
908 -910 0
-908 910 909 0
-909 63 0
-909 997 0
909 -997 -63 0
910 -911 0
910 -912 0
-910 912 911 0
-911 65 0
-911 997 0
911 -997 -65 0
912 -913 0
912 -915 0
-912 915 913 0
-913 125 0
-913 977 0
913 -977 -125 0
915 -916 0
915 -917 0
-915 917 916 0
-916 127 0
-916 977 0
916 -977 -127 0
917 -918 0
917 -921 0
-917 921 918 0
-918 129 0
-918 977 0
918 -977 -129 0
921 -922 0
921 -925 0
-921 925 922 0
-922 67 0
-922 997 0
922 -997 -67 0
925 -926 0
925 -929 0
-925 929 926 0
-926 105 0
-926 977 0
926 -977 -105 0
929 -930 0
929 -933 0
-929 933 930 0
-930 107 0
-930 997 0
930 -997 -107 0
933 -934 0
933 -936 0
-933 936 934 0
-934 69 0
-934 997 0
934 -997 -69 0
936 -937 0
936 -940 0
-936 940 937 0
-937 71 0
-937 997 0
937 -997 -71 0
940 -941 0
940 -944 0
-940 944 941 0
-941 73 0
-941 997 0
941 -997 -73 0
944 -945 0
944 -947 0
-944 947 945 0
-945 131 0
-945 977 0
945 -977 -131 0
947 -948 0
947 -951 0
-947 951 948 0
-948 109 0
-948 997 0
948 -997 -109 0
951 -952 0
951 -955 0
-951 955 952 0
-952 133 0
-952 997 0
952 -997 -133 0
955 -956 0
955 -959 0
-955 959 956 0
-956 88 0
-956 997 0
956 -997 -88 0
959 -960 0
959 -963 0
-959 963 960 0
-960 75 0
-960 977 0
960 -977 -75 0
963 -964 0
963 -967 0
-963 967 964 0
-964 90 0
-964 977 0
964 -977 -90 0
967 -968 0
967 -971 0
-967 971 968 0
-968 77 0
-968 997 0
968 -997 -77 0
971 -972 0
971 -975 0
-971 975 972 0
-972 92 0
-972 997 0
972 -997 -92 0
975 -976 0
975 -980 0
-975 980 976 0
-976 134 0
-976 977 0
976 -977 -134 0
980 -981 0
980 -984 0
-980 984 981 0
-981 79 0
-981 997 0
981 -997 -79 0
984 -985 0
984 -988 0
-984 988 985 0
-985 111 0
-985 997 0
985 -997 -111 0
988 -989 0
988 -992 0
-988 992 989 0
-989 93 0
-989 997 0
989 -997 -93 0
992 -993 0
992 -996 0
-992 996 993 0
-993 112 0
-993 997 0
993 -997 -112 0
-996 80 0
-996 997 0
996 -997 -80 0
